(set-info :Origin "This instance was generated by: BanditFuzz-- an RL fuzzer for SMT solvers" )
(set-info :Author "Joe Scott, Fed Mora, Vijay Ganesh" )
(set-info :Contact "Joe Scott, joseph.scott@uwaterloo.ca")
(set-logic QF_BV)
(declare-const bool_0 Bool)
(declare-const bool_1 Bool)
(declare-const bool_2 Bool)
(declare-const bool_3 Bool)
(declare-const bool_4 Bool)
(declare-const bv_0 (_ BitVec 32))
(declare-const bv_1 (_ BitVec 32))
(declare-const bv_2 (_ BitVec 32))
(declare-const bv_3 (_ BitVec 32))
(declare-const bv_4 (_ BitVec 32))
(assert (not (bvsgt (bvand bv_3 bv_4) (bvnand #xd7096443  #xff7d97a6 ))))
(assert (bvult (bvurem (bvudiv #xbd4f6a2c  #x4ca71cc6 ) (bvsrem #x21e60087  bv_1)) (bvlshr (bvadd bv_4 bv_1) (bvnand #xcac11c24  #xa89ed99c ))))
(assert (bvsgt (bvmul (bvnand #x788665ce  #xa503ee59 ) (bvsmod #x07c45b4f  #x2cd9a32a )) (bvshl (bvlshr bv_2 bv_1) (bvurem #x0f2ab376  bv_0))))
(assert (bvsgt (bvsub (bvurem #x2b13e35e  bv_3) (bvashr #x2b35a598  bv_4)) (bvnand (bvnand bv_3 #x7c19f74a ) (bvsub #xed0c0f16  bv_0))))
(assert (bvult (bvxor (bvlshr bv_2 #x40a07e25 ) (bvand #xb39efde8  #x7a5e0627 )) (bvlshr (bvadd bv_4 #x7bffdd24 ) (bvsub bv_2 #x101f3492 ))))
(check-sat)
(exit)
